db/inputs/10048241311433215216858265531419528568.smt2
(set-logic QF_FP)
(declare-const x0 (_ FloatingPoint 8 24))
(declare-const x1 (_ FloatingPoint 8 24))
(declare-const x2 (_ FloatingPoint 8 24))
(declare-const x3 (_ FloatingPoint 8 24))
(declare-const x4 (_ FloatingPoint 8 24))
(assert (fp.geq (fp.div RNE x4 x0) (fp.mul RNE x3 x0)))
(check-sat)
