db/data/10048241311433215216858265531419528568.z3.out
sat
-------------------
2.899761519
